63 200 7 46 138 79 73 135 34 75 
153 176 105 88 21 59 41 81 194 33 66 60 
24 131 102 152 169 188 86 121 11 76 146 
100 47 187 130 78 150 90 95 70 97 67 
127 27 110 44 145 116 91 93 193 175 
163 14 162 149 10 77 104 170 186 174 115 30 
54 156 124 3 58 191 137 96 8 141 64 
57 9 45 165 32 56 101 74 50 154 83 
103 196 184 183 22 129 80 126 185 39 36 
16 31 108 112 23 109 192 13 1 2 120 148 
42 172 132 142 166 106 55 107 82 19 
92 133 40 195 12 29 125 128 178 
140 84 155 143 139 87 71 17 158 157 
4 182 98 167 51 190 72 
85 38 117 189 65 99 53 123 
6 49 28 171 159 113 144 
37 94 151 168 177 160 114 
147 48 43 180 136 134 
197 5 20 62 26 122 35 181 
15 68 18 179 161 52 
61 111 198 
199 164 25 
69 118 
173 119 
89 

